
Gurobi 12.0.1 (mac64[arm], Python) logging started Mon Apr 14 18:47:21 2025

Set parameter Username
Set parameter LicenseID to value 2650602
Set parameter LogFile to value "gurobi.log"
Academic license - for non-commercial use only - expires 2026-04-12
Gurobi Optimizer version 12.0.1 build v12.0.1rc0 (mac64[arm] - Darwin 23.4.0 23E214)

CPU model: Apple M1
Thread count: 8 physical cores, 8 logical processors, using up to 8 threads

Optimize a model with 75678 rows, 73515 columns and 275652 nonzeros
Model fingerprint: 0xc89c6660
Variable types: 3210 continuous, 70305 integer (35160 binary)
Coefficient statistics:
  Matrix range     [1e+00, 1e+02]
  Objective range  [1e+00, 1e+00]
  Bounds range     [1e+00, 1e+00]
  RHS range        [2e+00, 1e+02]
Found heuristic solution: objective -0.0000000
Presolve removed 68954 rows and 69677 columns
Presolve time: 0.57s
Presolved: 6724 rows, 3838 columns, 17240 nonzeros
Variable types: 571 continuous, 3267 integer (1243 binary)
Performing another presolve...
Presolve removed 6697 rows and 3784 columns
Presolve time: 0.01s
Found heuristic solution: objective 5.0000000

Root relaxation: objective 1.300000e+01, 9 iterations, 0.00 seconds (0.00 work units)

    Nodes    |    Current Node    |     Objective Bounds      |     Work
 Expl Unexpl |  Obj  Depth IntInf | Incumbent    BestBd   Gap | It/Node Time

*    0     0               0      13.0000000   13.00000  0.00%     -    0s

Explored 1 nodes (9 simplex iterations) in 0.65 seconds (0.90 work units)
Thread count was 8 (of 8 available processors)

Solution count 3: 13 5 -0 

Optimal solution found (tolerance 1.00e-04)
Best objective 1.300000000000e+01, best bound 1.300000000000e+01, gap 0.0000%

Gurobi 12.0.1 (mac64[arm], Python) logging started Mon Apr 14 18:47:23 2025

Set parameter Username
Set parameter LicenseID to value 2650602
Set parameter LogFile to value "gurobi.log"
Academic license - for non-commercial use only - expires 2026-04-12
Gurobi Optimizer version 12.0.1 build v12.0.1rc0 (mac64[arm] - Darwin 23.4.0 23E214)

CPU model: Apple M1
Thread count: 8 physical cores, 8 logical processors, using up to 8 threads

Optimize a model with 75260 rows, 73110 columns and 273756 nonzeros
Model fingerprint: 0xf73d17ec
Variable types: 3195 continuous, 69915 integer (34965 binary)
Coefficient statistics:
  Matrix range     [1e+00, 8e+01]
  Objective range  [1e+00, 1e+00]
  Bounds range     [1e+00, 1e+00]
  RHS range        [2e+00, 8e+01]
Found heuristic solution: objective -0.0000000
Presolve removed 70646 rows and 68471 columns
Presolve time: 0.51s
Presolved: 4614 rows, 4639 columns, 13166 nonzeros
Variable types: 0 continuous, 4639 integer (2016 binary)
Performing another presolve...
Presolve removed 4559 rows and 4544 columns
Presolve time: 0.00s
Found heuristic solution: objective 5.0000000

Root relaxation: objective 1.464706e+01, 31 iterations, 0.00 seconds (0.00 work units)

    Nodes    |    Current Node    |     Objective Bounds      |     Work
 Expl Unexpl |  Obj  Depth IntInf | Incumbent    BestBd   Gap | It/Node Time

     0     0   14.64706    0    9    5.00000   14.64706   193%     -    0s
H    0     0                      14.0000000   14.64706  4.62%     -    0s
     0     0   14.64706    0    9   14.00000   14.64706  4.62%     -    0s

Explored 1 nodes (31 simplex iterations) in 0.54 seconds (0.80 work units)
Thread count was 8 (of 8 available processors)

Solution count 3: 14 5 -0 

Optimal solution found (tolerance 1.00e-04)
Best objective 1.400000000000e+01, best bound 1.400000000000e+01, gap 0.0000%

Gurobi 12.0.1 (mac64[arm], Python) logging started Mon Apr 14 18:47:25 2025

Set parameter Username
Set parameter LicenseID to value 2650602
Set parameter LogFile to value "gurobi.log"
Academic license - for non-commercial use only - expires 2026-04-12
Gurobi Optimizer version 12.0.1 build v12.0.1rc0 (mac64[arm] - Darwin 23.4.0 23E214)

CPU model: Apple M1
Thread count: 8 physical cores, 8 logical processors, using up to 8 threads

Optimize a model with 77926 rows, 75690 columns and 284364 nonzeros
Model fingerprint: 0xb4f75f9e
Variable types: 3195 continuous, 72495 integer (36255 binary)
Coefficient statistics:
  Matrix range     [1e+00, 8e+01]
  Objective range  [1e+00, 1e+00]
  Bounds range     [1e+00, 1e+00]
  RHS range        [2e+00, 8e+01]
Found heuristic solution: objective -0.0000000
Presolve removed 75087 rows and 73801 columns
Presolve time: 0.47s
Presolved: 2839 rows, 1889 columns, 7390 nonzeros
Variable types: 150 continuous, 1739 integer (570 binary)
Performing another presolve...
Presolve removed 2759 rows and 1743 columns
Presolve time: 0.00s
Found heuristic solution: objective 2.0000000

Root relaxation: objective 1.400000e+01, 39 iterations, 0.00 seconds (0.00 work units)

    Nodes    |    Current Node    |     Objective Bounds      |     Work
 Expl Unexpl |  Obj  Depth IntInf | Incumbent    BestBd   Gap | It/Node Time

*    0     0               0      14.0000000   14.00000  0.00%     -    0s

Explored 1 nodes (39 simplex iterations) in 0.52 seconds (0.73 work units)
Thread count was 8 (of 8 available processors)

Solution count 3: 14 2 -0 

Optimal solution found (tolerance 1.00e-04)
Best objective 1.400000000000e+01, best bound 1.400000000000e+01, gap 0.0000%
